RAW/XY/fspd/X-n139-k10.vrp_seed-1.out
11302	7.729	32.45
