RAW/XY/fspd/X-n139-k10.vrp_seed-1.sol
Route #1: 29 44 72 117 12 90 113 96 5 6 61 19 66 48 65 57
Route #2: 124 88 70 123 27 115 34 131 38 69 94 108 22 112 25 125 36 129 53 49 2 99 87 52 126 95
Route #3: 79 20 109 10 13 97 31 50 74 62 4 23 26 9 137 114 24 85 118 32 16
Route #4: 91 89 104 86 136 101 116 68 83 1 18 55 21 103 28 63 138 122 76 56 98
Route #5: 71 81 102 33 135 14 11 128 119 47 17 37 40 134 100 67 42 59 60 15 8 39 51 84 30 7 3
Route #6: 45 110 58 35 78 80 41 92 107 132 93 130 127 64 82 106 77 43 46 105 111 75 133 120 73 121 54
Cost 11302.000000